NAME: ipa-building-navigation
TYPE: TSP
COMMENT: This is the TSPlib file for using concorde. See http://comopt.ifi.uni-heidelberg.de/software/TSPLIB95/ for documentation.
DIMENSION: 8
EDGE_WEIGHT_TYPE: EXPLICIT
EDGE_WEIGHT_FORMAT: FULL_MATRIX
EDGE_WEIGHT_SECTION
 0 89 132 170 160 151 150 339
 89 0 52 175 173 164 157 353
 132 52 0 207 217 208 201 396
 170 175 207 0 160 151 120 316
 160 173 217 160 0 28 117 306
 151 164 208 151 28 0 108 297
 150 157 201 120 117 108 0 195
 339 353 396 316 306 297 195 0
EOF